2 198 194 61 66 10 153 4 47 67 9 123 177 0 182 122 13 152 79 37 172 119 89 12 22 138 85 74 59 159 80 40 181 86 31 6 53 133 42 35 142 113 111 1 26 102 62 108 100 116 130 168 114 151 196 174 150 145 50 83 125 36 58 65 147 33 18 51 91 161 28 93 46 112 78 84 158 75 8 149 131 136 197 34 184 101 146 21 137 44 49 16 170 7 14 107 30 15 162 23 103 19 94 144 32 132 88 169 60 141 106 95 167 166 110 129 81 5 121 189 148 27 24 163 180 135 178 57 165 195 3 134 82 118 192 193 68 87 20 98 73 128 183 76 109 126 48 115 54 69 143 127 188 187 175 11 117 171 186 45 29 92 139 99 52 160 71 56 70 38 105 120 77 63 97 43 157 191 199 190 25 140 41 64 176 185 104 164 17 72 155 173 124 179 90 55 96 156 39 154 

